NAME
ROWS
 N  OBJ
 G  c1
 G  c2
 G  c3
 G  c4
 G  c5
 G  c6
 G  c7
 G  c8
 G  c9
 G  c10
 G  c11
 G  c12
 G  c13
 G  c14
 G  c15
 G  c16
 G  c17
 G  c18
 G  c19
 G  c20
 G  c21
 G  c22
 G  c23
 G  c24
 G  c25
 G  c26
 G  c27
 G  c28
 G  c29
 G  c30
 G  c31
 G  c32
 G  c33
 G  c34
 G  c35
 G  c36
 G  c37
 G  c38
 G  c39
 G  c40
 G  c41
 G  c42
 G  c43
 G  c44
 G  c45
 G  c46
 G  c47
 G  c48
 G  c49
 G  c50
 G  c51
 G  c52
 G  c53
 G  c54
 G  c55
 G  c56
 G  c57
 G  c58
 G  c59
 G  c60
 G  c61
 G  c62
 G  c63
 G  c64
 G  c65
 G  c66
 G  c67
 G  c68
 G  c69
 G  c70
 G  c71
 G  c72
 G  c73
 G  c74
 G  c75
 G  c76
 G  c77
 G  c78
 G  c79
 G  c80
 G  c81
 G  c82
 G  c83
 G  c84
 G  c85
 G  c86
 G  c87
 G  c88
 G  c89
 G  c90
 G  c91
 G  c92
 G  c93
 G  c94
 G  c95
 G  c96
 G  c97
 G  c98
 G  c99
 G  c100
COLUMNS
    MARKER    'MARKER'                 'INTORG'
    x[1]      c1        1
    x[1]      c25       1
    x[1]      c27       1
    x[1]      c37       1
    x[1]      c39       1
    x[1]      c54       1
    x[1]      c61       1
    x[1]      c62       1
    x[1]      c68       1
    x[1]      c81       1
    x[1]      c98       1
    x[1]      c99       1
    x[1]      OBJ       1
    x[2]      c2        1
    x[2]      c5        1
    x[2]      c8        1
    x[2]      c49       1
    x[2]      c60       1
    x[2]      c76       1
    x[2]      c100      1
    x[2]      OBJ       1
    x[3]      c3        1
    x[3]      c18       1
    x[3]      c45       1
    x[3]      c54       1
    x[3]      c55       1
    x[3]      c62       1
    x[3]      c76       1
    x[3]      c85       1
    x[3]      c97       1
    x[3]      OBJ       1
    x[4]      c4        1
    x[4]      c6        1
    x[4]      c13       1
    x[4]      c22       1
    x[4]      c31       1
    x[4]      c33       1
    x[4]      c38       1
    x[4]      c40       1
    x[4]      c45       1
    x[4]      c90       1
    x[4]      c94       1
    x[4]      OBJ       1
    x[5]      c2        1
    x[5]      c5        1
    x[5]      c10       1
    x[5]      c38       1
    x[5]      c46       1
    x[5]      c56       1
    x[5]      c61       1
    x[5]      c70       1
    x[5]      c74       1
    x[5]      c78       1
    x[5]      c88       1
    x[5]      c96       1
    x[5]      c99       1
    x[5]      OBJ       1
    x[6]      c4        1
    x[6]      c6        1
    x[6]      c14       1
    x[6]      c19       1
    x[6]      c32       1
    x[6]      c37       1
    x[6]      c70       1
    x[6]      c73       1
    x[6]      c81       1
    x[6]      c84       1
    x[6]      c90       1
    x[6]      c92       1
    x[6]      c95       1
    x[6]      c99       1
    x[6]      OBJ       1
    x[7]      c7        1
    x[7]      c82       1
    x[7]      c94       1
    x[7]      c95       1
    x[7]      OBJ       1
    x[8]      c2        1
    x[8]      c8        1
    x[8]      c10       1
    x[8]      c14       1
    x[8]      c35       1
    x[8]      c36       1
    x[8]      c51       1
    x[8]      c52       1
    x[8]      c60       1
    x[8]      c62       1
    x[8]      c68       1
    x[8]      c72       1
    x[8]      c73       1
    x[8]      c84       1
    x[8]      OBJ       1
    x[9]      c9        1
    x[9]      c13       1
    x[9]      c41       1
    x[9]      c43       1
    x[9]      c46       1
    x[9]      c50       1
    x[9]      c70       1
    x[9]      c79       1
    x[9]      c90       1
    x[9]      c95       1
    x[9]      OBJ       1
    x[10]     c5        1
    x[10]     c8        1
    x[10]     c10       1
    x[10]     c17       1
    x[10]     c21       1
    x[10]     c27       1
    x[10]     c36       1
    x[10]     c37       1
    x[10]     c49       1
    x[10]     c65       1
    x[10]     c66       1
    x[10]     c70       1
    x[10]     c82       1
    x[10]     c89       1
    x[10]     c100      1
    x[10]     OBJ       1
    x[11]     c11       1
    x[11]     c29       1
    x[11]     c30       1
    x[11]     c44       1
    x[11]     c47       1
    x[11]     c50       1
    x[11]     c67       1
    x[11]     c71       1
    x[11]     c77       1
    x[11]     c82       1
    x[11]     OBJ       1
    x[12]     c12       1
    x[12]     c15       1
    x[12]     c17       1
    x[12]     c18       1
    x[12]     c30       1
    x[12]     c42       1
    x[12]     c54       1
    x[12]     c61       1
    x[12]     c77       1
    x[12]     c78       1
    x[12]     c86       1
    x[12]     c98       1
    x[12]     OBJ       1
    x[13]     c4        1
    x[13]     c9        1
    x[13]     c13       1
    x[13]     c18       1
    x[13]     c36       1
    x[13]     c40       1
    x[13]     c41       1
    x[13]     c47       1
    x[13]     c50       1
    x[13]     c67       1
    x[13]     c70       1
    x[13]     c80       1
    x[13]     OBJ       1
    x[14]     c6        1
    x[14]     c8        1
    x[14]     c14       1
    x[14]     c17       1
    x[14]     c29       1
    x[14]     c32       1
    x[14]     c37       1
    x[14]     c50       1
    x[14]     c60       1
    x[14]     c68       1
    x[14]     c70       1
    x[14]     c71       1
    x[14]     c76       1
    x[14]     c80       1
    x[14]     c97       1
    x[14]     c100      1
    x[14]     OBJ       1
    x[15]     c12       1
    x[15]     c15       1
    x[15]     c19       1
    x[15]     c20       1
    x[15]     c31       1
    x[15]     c33       1
    x[15]     c35       1
    x[15]     c48       1
    x[15]     c51       1
    x[15]     c52       1
    x[15]     c66       1
    x[15]     c75       1
    x[15]     c79       1
    x[15]     c83       1
    x[15]     OBJ       1
    x[16]     c16       1
    x[16]     c24       1
    x[16]     c38       1
    x[16]     c40       1
    x[16]     c54       1
    x[16]     c57       1
    x[16]     OBJ       1
    x[17]     c10       1
    x[17]     c12       1
    x[17]     c14       1
    x[17]     c17       1
    x[17]     c18       1
    x[17]     c24       1
    x[17]     c27       1
    x[17]     c29       1
    x[17]     c41       1
    x[17]     c64       1
    x[17]     c67       1
    x[17]     c80       1
    x[17]     c92       1
    x[17]     OBJ       1
    x[18]     c3        1
    x[18]     c12       1
    x[18]     c13       1
    x[18]     c17       1
    x[18]     c18       1
    x[18]     c19       1
    x[18]     c25       1
    x[18]     c36       1
    x[18]     c49       1
    x[18]     c64       1
    x[18]     c70       1
    x[18]     c76       1
    x[18]     c80       1
    x[18]     c83       1
    x[18]     c96       1
    x[18]     OBJ       1
    x[19]     c6        1
    x[19]     c15       1
    x[19]     c18       1
    x[19]     c19       1
    x[19]     c36       1
    x[19]     c38       1
    x[19]     c48       1
    x[19]     c68       1
    x[19]     c69       1
    x[19]     c80       1
    x[19]     c86       1
    x[19]     c98       1
    x[19]     c99       1
    x[19]     OBJ       1
    x[20]     c15       1
    x[20]     c20       1
    x[20]     c58       1
    x[20]     c60       1
    x[20]     c68       1
    x[20]     c69       1
    x[20]     c77       1
    x[20]     c78       1
    x[20]     c80       1
    x[20]     c97       1
    x[20]     OBJ       1
    x[21]     c10       1
    x[21]     c21       1
    x[21]     c29       1
    x[21]     c38       1
    x[21]     c54       1
    x[21]     c64       1
    x[21]     c67       1
    x[21]     c71       1
    x[21]     c80       1
    x[21]     c84       1
    x[21]     c85       1
    x[21]     c99       1
    x[21]     OBJ       1
    x[22]     c4        1
    x[22]     c22       1
    x[22]     c58       1
    x[22]     c63       1
    x[22]     c70       1
    x[22]     c84       1
    x[22]     c85       1
    x[22]     c93       1
    x[22]     c98       1
    x[22]     OBJ       1
    x[23]     c23       1
    x[23]     c27       1
    x[23]     c32       1
    x[23]     c61       1
    x[23]     c70       1
    x[23]     c75       1
    x[23]     c83       1
    x[23]     c84       1
    x[23]     c88       1
    x[23]     c97       1
    x[23]     OBJ       1
    x[24]     c16       1
    x[24]     c17       1
    x[24]     c24       1
    x[24]     c28       1
    x[24]     c33       1
    x[24]     c37       1
    x[24]     c40       1
    x[24]     c42       1
    x[24]     c43       1
    x[24]     c65       1
    x[24]     c74       1
    x[24]     OBJ       1
    x[25]     c1        1
    x[25]     c18       1
    x[25]     c25       1
    x[25]     c32       1
    x[25]     c46       1
    x[25]     c47       1
    x[25]     c54       1
    x[25]     c56       1
    x[25]     c57       1
    x[25]     c71       1
    x[25]     c81       1
    x[25]     c91       1
    x[25]     c96       1
    x[25]     c100      1
    x[25]     OBJ       1
    x[26]     c26       1
    x[26]     c33       1
    x[26]     c43       1
    x[26]     c58       1
    x[26]     c64       1
    x[26]     c83       1
    x[26]     c97       1
    x[26]     OBJ       1
    x[27]     c1        1
    x[27]     c10       1
    x[27]     c17       1
    x[27]     c23       1
    x[27]     c27       1
    x[27]     c33       1
    x[27]     c40       1
    x[27]     c41       1
    x[27]     c55       1
    x[27]     c64       1
    x[27]     c74       1
    x[27]     c89       1
    x[27]     c92       1
    x[27]     c97       1
    x[27]     OBJ       1
    x[28]     c24       1
    x[28]     c28       1
    x[28]     c30       1
    x[28]     c58       1
    x[28]     c62       1
    x[28]     c77       1
    x[28]     c81       1
    x[28]     c89       1
    x[28]     c91       1
    x[28]     c94       1
    x[28]     c97       1
    x[28]     OBJ       1
    x[29]     c11       1
    x[29]     c14       1
    x[29]     c17       1
    x[29]     c21       1
    x[29]     c29       1
    x[29]     c32       1
    x[29]     c47       1
    x[29]     c52       1
    x[29]     c53       1
    x[29]     c55       1
    x[29]     c57       1
    x[29]     c66       1
    x[29]     c71       1
    x[29]     c83       1
    x[29]     c88       1
    x[29]     OBJ       1
    x[30]     c11       1
    x[30]     c12       1
    x[30]     c28       1
    x[30]     c30       1
    x[30]     c32       1
    x[30]     c43       1
    x[30]     c51       1
    x[30]     c52       1
    x[30]     c65       1
    x[30]     c76       1
    x[30]     c78       1
    x[30]     c85       1
    x[30]     OBJ       1
    x[31]     c4        1
    x[31]     c15       1
    x[31]     c31       1
    x[31]     c53       1
    x[31]     c65       1
    x[31]     c73       1
    x[31]     c81       1
    x[31]     c88       1
    x[31]     c93       1
    x[31]     OBJ       1
    x[32]     c6        1
    x[32]     c14       1
    x[32]     c23       1
    x[32]     c25       1
    x[32]     c29       1
    x[32]     c30       1
    x[32]     c32       1
    x[32]     c39       1
    x[32]     c52       1
    x[32]     c83       1
    x[32]     c96       1
    x[32]     c97       1
    x[32]     c98       1
    x[32]     c100      1
    x[32]     OBJ       1
    x[33]     c4        1
    x[33]     c15       1
    x[33]     c24       1
    x[33]     c26       1
    x[33]     c27       1
    x[33]     c33       1
    x[33]     c35       1
    x[33]     c41       1
    x[33]     c52       1
    x[33]     c56       1
    x[33]     c59       1
    x[33]     c67       1
    x[33]     c75       1
    x[33]     c100      1
    x[33]     OBJ       1
    x[34]     c34       1
    x[34]     c38       1
    x[34]     c39       1
    x[34]     c54       1
    x[34]     c60       1
    x[34]     c67       1
    x[34]     c75       1
    x[34]     c80       1
    x[34]     OBJ       1
    x[35]     c8        1
    x[35]     c15       1
    x[35]     c33       1
    x[35]     c35       1
    x[35]     c47       1
    x[35]     c55       1
    x[35]     c57       1
    x[35]     c64       1
    x[35]     c67       1
    x[35]     c69       1
    x[35]     OBJ       1
    x[36]     c8        1
    x[36]     c10       1
    x[36]     c13       1
    x[36]     c18       1
    x[36]     c19       1
    x[36]     c36       1
    x[36]     c41       1
    x[36]     c47       1
    x[36]     c69       1
    x[36]     c75       1
    x[36]     c100      1
    x[36]     OBJ       1
    x[37]     c1        1
    x[37]     c6        1
    x[37]     c10       1
    x[37]     c14       1
    x[37]     c24       1
    x[37]     c37       1
    x[37]     c39       1
    x[37]     c45       1
    x[37]     c57       1
    x[37]     c58       1
    x[37]     c66       1
    x[37]     c89       1
    x[37]     c96       1
    x[37]     OBJ       1
    x[38]     c4        1
    x[38]     c5        1
    x[38]     c16       1
    x[38]     c19       1
    x[38]     c21       1
    x[38]     c34       1
    x[38]     c38       1
    x[38]     c54       1
    x[38]     c58       1
    x[38]     c62       1
    x[38]     c77       1
    x[38]     c90       1
    x[38]     OBJ       1
    x[39]     c1        1
    x[39]     c32       1
    x[39]     c34       1
    x[39]     c37       1
    x[39]     c39       1
    x[39]     c42       1
    x[39]     c45       1
    x[39]     c46       1
    x[39]     c47       1
    x[39]     c50       1
    x[39]     c62       1
    x[39]     c68       1
    x[39]     c87       1
    x[39]     c89       1
    x[39]     c100      1
    x[39]     OBJ       1
    x[40]     c4        1
    x[40]     c13       1
    x[40]     c16       1
    x[40]     c24       1
    x[40]     c27       1
    x[40]     c40       1
    x[40]     c69       1
    x[40]     c91       1
    x[40]     c98       1
    x[40]     OBJ       1
    x[41]     c9        1
    x[41]     c13       1
    x[41]     c17       1
    x[41]     c27       1
    x[41]     c33       1
    x[41]     c36       1
    x[41]     c41       1
    x[41]     c44       1
    x[41]     c60       1
    x[41]     OBJ       1
    x[42]     c12       1
    x[42]     c24       1
    x[42]     c39       1
    x[42]     c42       1
    x[42]     c59       1
    x[42]     c63       1
    x[42]     c71       1
    x[42]     c75       1
    x[42]     c100      1
    x[42]     OBJ       1
    x[43]     c9        1
    x[43]     c24       1
    x[43]     c26       1
    x[43]     c30       1
    x[43]     c43       1
    x[43]     c47       1
    x[43]     c53       1
    x[43]     c66       1
    x[43]     c72       1
    x[43]     c83       1
    x[43]     c86       1
    x[43]     c89       1
    x[43]     c94       1
    x[43]     c98       1
    x[43]     OBJ       1
    x[44]     c11       1
    x[44]     c41       1
    x[44]     c44       1
    x[44]     c51       1
    x[44]     c87       1
    x[44]     OBJ       1
    x[45]     c3        1
    x[45]     c4        1
    x[45]     c37       1
    x[45]     c39       1
    x[45]     c45       1
    x[45]     c55       1
    x[45]     c63       1
    x[45]     c69       1
    x[45]     c73       1
    x[45]     c86       1
    x[45]     c92       1
    x[45]     OBJ       1
    x[46]     c5        1
    x[46]     c9        1
    x[46]     c25       1
    x[46]     c39       1
    x[46]     c46       1
    x[46]     c47       1
    x[46]     c59       1
    x[46]     c64       1
    x[46]     c67       1
    x[46]     c77       1
    x[46]     c82       1
    x[46]     c84       1
    x[46]     c92       1
    x[46]     OBJ       1
    x[47]     c11       1
    x[47]     c13       1
    x[47]     c25       1
    x[47]     c29       1
    x[47]     c35       1
    x[47]     c36       1
    x[47]     c39       1
    x[47]     c43       1
    x[47]     c46       1
    x[47]     c47       1
    x[47]     c52       1
    x[47]     c60       1
    x[47]     c64       1
    x[47]     c74       1
    x[47]     c76       1
    x[47]     c80       1
    x[47]     c87       1
    x[47]     c93       1
    x[47]     OBJ       1
    x[48]     c15       1
    x[48]     c19       1
    x[48]     c48       1
    x[48]     c71       1
    x[48]     OBJ       1
    x[49]     c2        1
    x[49]     c10       1
    x[49]     c18       1
    x[49]     c49       1
    x[49]     c61       1
    x[49]     c85       1
    x[49]     c87       1
    x[49]     c90       1
    x[49]     c95       1
    x[49]     c96       1
    x[49]     OBJ       1
    x[50]     c9        1
    x[50]     c11       1
    x[50]     c13       1
    x[50]     c14       1
    x[50]     c39       1
    x[50]     c50       1
    x[50]     c66       1
    x[50]     c69       1
    x[50]     c77       1
    x[50]     c80       1
    x[50]     c81       1
    x[50]     c92       1
    x[50]     OBJ       1
    x[51]     c8        1
    x[51]     c15       1
    x[51]     c30       1
    x[51]     c44       1
    x[51]     c51       1
    x[51]     c71       1
    x[51]     c72       1
    x[51]     c76       1
    x[51]     c83       1
    x[51]     OBJ       1
    x[52]     c8        1
    x[52]     c15       1
    x[52]     c29       1
    x[52]     c30       1
    x[52]     c32       1
    x[52]     c33       1
    x[52]     c47       1
    x[52]     c52       1
    x[52]     c58       1
    x[52]     c65       1
    x[52]     c83       1
    x[52]     c94       1
    x[52]     c99       1
    x[52]     OBJ       1
    x[53]     c29       1
    x[53]     c31       1
    x[53]     c43       1
    x[53]     c53       1
    x[53]     c71       1
    x[53]     OBJ       1
    x[54]     c1        1
    x[54]     c3        1
    x[54]     c12       1
    x[54]     c16       1
    x[54]     c21       1
    x[54]     c25       1
    x[54]     c34       1
    x[54]     c38       1
    x[54]     c54       1
    x[54]     c56       1
    x[54]     c70       1
    x[54]     c77       1
    x[54]     c80       1
    x[54]     c85       1
    x[54]     c90       1
    x[54]     c92       1
    x[54]     c97       1
    x[54]     OBJ       1
    x[55]     c3        1
    x[55]     c27       1
    x[55]     c29       1
    x[55]     c35       1
    x[55]     c45       1
    x[55]     c55       1
    x[55]     c57       1
    x[55]     c60       1
    x[55]     c86       1
    x[55]     OBJ       1
    x[56]     c5        1
    x[56]     c25       1
    x[56]     c33       1
    x[56]     c54       1
    x[56]     c56       1
    x[56]     c57       1
    x[56]     c63       1
    x[56]     c88       1
    x[56]     c91       1
    x[56]     OBJ       1
    x[57]     c16       1
    x[57]     c25       1
    x[57]     c29       1
    x[57]     c35       1
    x[57]     c37       1
    x[57]     c55       1
    x[57]     c56       1
    x[57]     c57       1
    x[57]     c58       1
    x[57]     c64       1
    x[57]     c84       1
    x[57]     c94       1
    x[57]     c95       1
    x[57]     c97       1
    x[57]     OBJ       1
    x[58]     c20       1
    x[58]     c22       1
    x[58]     c26       1
    x[58]     c28       1
    x[58]     c37       1
    x[58]     c38       1
    x[58]     c52       1
    x[58]     c57       1
    x[58]     c58       1
    x[58]     c81       1
    x[58]     c94       1
    x[58]     OBJ       1
    x[59]     c33       1
    x[59]     c42       1
    x[59]     c46       1
    x[59]     c59       1
    x[59]     c70       1
    x[59]     c80       1
    x[59]     OBJ       1
    x[60]     c2        1
    x[60]     c8        1
    x[60]     c14       1
    x[60]     c20       1
    x[60]     c34       1
    x[60]     c41       1
    x[60]     c47       1
    x[60]     c55       1
    x[60]     c60       1
    x[60]     c63       1
    x[60]     c64       1
    x[60]     c66       1
    x[60]     c67       1
    x[60]     c76       1
    x[60]     c82       1
    x[60]     c88       1
    x[60]     OBJ       1
    x[61]     c1        1
    x[61]     c5        1
    x[61]     c12       1
    x[61]     c23       1
    x[61]     c49       1
    x[61]     c61       1
    x[61]     c62       1
    x[61]     c70       1
    x[61]     OBJ       1
    x[62]     c1        1
    x[62]     c3        1
    x[62]     c8        1
    x[62]     c28       1
    x[62]     c38       1
    x[62]     c39       1
    x[62]     c61       1
    x[62]     c62       1
    x[62]     c90       1
    x[62]     OBJ       1
    x[63]     c22       1
    x[63]     c42       1
    x[63]     c45       1
    x[63]     c56       1
    x[63]     c60       1
    x[63]     c63       1
    x[63]     c91       1
    x[63]     OBJ       1
    x[64]     c17       1
    x[64]     c18       1
    x[64]     c21       1
    x[64]     c26       1
    x[64]     c27       1
    x[64]     c35       1
    x[64]     c46       1
    x[64]     c47       1
    x[64]     c57       1
    x[64]     c60       1
    x[64]     c64       1
    x[64]     c72       1
    x[64]     c81       1
    x[64]     OBJ       1
    x[65]     c10       1
    x[65]     c24       1
    x[65]     c30       1
    x[65]     c31       1
    x[65]     c52       1
    x[65]     c65       1
    x[65]     c89       1
    x[65]     c90       1
    x[65]     c98       1
    x[65]     OBJ       1
    x[66]     c10       1
    x[66]     c15       1
    x[66]     c29       1
    x[66]     c37       1
    x[66]     c43       1
    x[66]     c50       1
    x[66]     c60       1
    x[66]     c66       1
    x[66]     c74       1
    x[66]     c93       1
    x[66]     OBJ       1
    x[67]     c11       1
    x[67]     c13       1
    x[67]     c17       1
    x[67]     c21       1
    x[67]     c33       1
    x[67]     c34       1
    x[67]     c35       1
    x[67]     c46       1
    x[67]     c60       1
    x[67]     c67       1
    x[67]     c85       1
    x[67]     OBJ       1
    x[68]     c1        1
    x[68]     c8        1
    x[68]     c14       1
    x[68]     c19       1
    x[68]     c20       1
    x[68]     c39       1
    x[68]     c68       1
    x[68]     c78       1
    x[68]     c79       1
    x[68]     c81       1
    x[68]     c89       1
    x[68]     c100      1
    x[68]     OBJ       1
    x[69]     c19       1
    x[69]     c20       1
    x[69]     c35       1
    x[69]     c36       1
    x[69]     c40       1
    x[69]     c45       1
    x[69]     c50       1
    x[69]     c69       1
    x[69]     c71       1
    x[69]     c85       1
    x[69]     c99       1
    x[69]     OBJ       1
    x[70]     c5        1
    x[70]     c6        1
    x[70]     c9        1
    x[70]     c10       1
    x[70]     c13       1
    x[70]     c14       1
    x[70]     c18       1
    x[70]     c22       1
    x[70]     c23       1
    x[70]     c54       1
    x[70]     c59       1
    x[70]     c61       1
    x[70]     c70       1
    x[70]     c72       1
    x[70]     c80       1
    x[70]     c82       1
    x[70]     OBJ       1
    x[71]     c11       1
    x[71]     c14       1
    x[71]     c21       1
    x[71]     c25       1
    x[71]     c29       1
    x[71]     c42       1
    x[71]     c48       1
    x[71]     c51       1
    x[71]     c53       1
    x[71]     c69       1
    x[71]     c71       1
    x[71]     c80       1
    x[71]     OBJ       1
    x[72]     c8        1
    x[72]     c43       1
    x[72]     c51       1
    x[72]     c64       1
    x[72]     c70       1
    x[72]     c72       1
    x[72]     c75       1
    x[72]     c77       1
    x[72]     c92       1
    x[72]     c99       1
    x[72]     OBJ       1
    x[73]     c6        1
    x[73]     c8        1
    x[73]     c31       1
    x[73]     c45       1
    x[73]     c73       1
    x[73]     c86       1
    x[73]     OBJ       1
    x[74]     c5        1
    x[74]     c24       1
    x[74]     c27       1
    x[74]     c47       1
    x[74]     c66       1
    x[74]     c74       1
    x[74]     c75       1
    x[74]     c80       1
    x[74]     c90       1
    x[74]     c92       1
    x[74]     OBJ       1
    x[75]     c15       1
    x[75]     c23       1
    x[75]     c33       1
    x[75]     c34       1
    x[75]     c36       1
    x[75]     c42       1
    x[75]     c72       1
    x[75]     c74       1
    x[75]     c75       1
    x[75]     c95       1
    x[75]     OBJ       1
    x[76]     c2        1
    x[76]     c3        1
    x[76]     c14       1
    x[76]     c18       1
    x[76]     c30       1
    x[76]     c47       1
    x[76]     c51       1
    x[76]     c60       1
    x[76]     c76       1
    x[76]     c83       1
    x[76]     c89       1
    x[76]     OBJ       1
    x[77]     c11       1
    x[77]     c12       1
    x[77]     c20       1
    x[77]     c28       1
    x[77]     c38       1
    x[77]     c46       1
    x[77]     c50       1
    x[77]     c54       1
    x[77]     c72       1
    x[77]     c77       1
    x[77]     c96       1
    x[77]     OBJ       1
    x[78]     c5        1
    x[78]     c12       1
    x[78]     c20       1
    x[78]     c30       1
    x[78]     c68       1
    x[78]     c78       1
    x[78]     c100      1
    x[78]     OBJ       1
    x[79]     c9        1
    x[79]     c15       1
    x[79]     c68       1
    x[79]     c79       1
    x[79]     c100      1
    x[79]     OBJ       1
    x[80]     c13       1
    x[80]     c14       1
    x[80]     c17       1
    x[80]     c18       1
    x[80]     c19       1
    x[80]     c20       1
    x[80]     c21       1
    x[80]     c34       1
    x[80]     c47       1
    x[80]     c50       1
    x[80]     c54       1
    x[80]     c59       1
    x[80]     c70       1
    x[80]     c71       1
    x[80]     c74       1
    x[80]     c80       1
    x[80]     c90       1
    x[80]     c94       1
    x[80]     c96       1
    x[80]     OBJ       1
    x[81]     c1        1
    x[81]     c6        1
    x[81]     c25       1
    x[81]     c28       1
    x[81]     c31       1
    x[81]     c50       1
    x[81]     c58       1
    x[81]     c64       1
    x[81]     c68       1
    x[81]     c81       1
    x[81]     c82       1
    x[81]     c96       1
    x[81]     OBJ       1
    x[82]     c7        1
    x[82]     c10       1
    x[82]     c11       1
    x[82]     c46       1
    x[82]     c60       1
    x[82]     c70       1
    x[82]     c81       1
    x[82]     c82       1
    x[82]     c89       1
    x[82]     OBJ       1
    x[83]     c15       1
    x[83]     c18       1
    x[83]     c23       1
    x[83]     c26       1
    x[83]     c29       1
    x[83]     c32       1
    x[83]     c43       1
    x[83]     c51       1
    x[83]     c52       1
    x[83]     c76       1
    x[83]     c83       1
    x[83]     OBJ       1
    x[84]     c6        1
    x[84]     c8        1
    x[84]     c21       1
    x[84]     c22       1
    x[84]     c23       1
    x[84]     c46       1
    x[84]     c57       1
    x[84]     c84       1
    x[84]     OBJ       1
    x[85]     c3        1
    x[85]     c21       1
    x[85]     c22       1
    x[85]     c30       1
    x[85]     c49       1
    x[85]     c54       1
    x[85]     c67       1
    x[85]     c69       1
    x[85]     c85       1
    x[85]     c90       1
    x[85]     c95       1
    x[85]     c100      1
    x[85]     OBJ       1
    x[86]     c12       1
    x[86]     c19       1
    x[86]     c43       1
    x[86]     c45       1
    x[86]     c55       1
    x[86]     c73       1
    x[86]     c86       1
    x[86]     c87       1
    x[86]     c91       1
    x[86]     OBJ       1
    x[87]     c39       1
    x[87]     c44       1
    x[87]     c47       1
    x[87]     c49       1
    x[87]     c86       1
    x[87]     c87       1
    x[87]     c100      1
    x[87]     OBJ       1
    x[88]     c5        1
    x[88]     c23       1
    x[88]     c29       1
    x[88]     c31       1
    x[88]     c56       1
    x[88]     c60       1
    x[88]     c88       1
    x[88]     c98       1
    x[88]     OBJ       1
    x[89]     c10       1
    x[89]     c27       1
    x[89]     c28       1
    x[89]     c37       1
    x[89]     c39       1
    x[89]     c43       1
    x[89]     c65       1
    x[89]     c68       1
    x[89]     c76       1
    x[89]     c82       1
    x[89]     c89       1
    x[89]     c99       1
    x[89]     OBJ       1
    x[90]     c4        1
    x[90]     c6        1
    x[90]     c9        1
    x[90]     c38       1
    x[90]     c49       1
    x[90]     c54       1
    x[90]     c62       1
    x[90]     c65       1
    x[90]     c74       1
    x[90]     c80       1
    x[90]     c85       1
    x[90]     c90       1
    x[90]     c98       1
    x[90]     OBJ       1
    x[91]     c25       1
    x[91]     c28       1
    x[91]     c40       1
    x[91]     c56       1
    x[91]     c63       1
    x[91]     c86       1
    x[91]     c91       1
    x[91]     c94       1
    x[91]     OBJ       1
    x[92]     c6        1
    x[92]     c17       1
    x[92]     c27       1
    x[92]     c45       1
    x[92]     c46       1
    x[92]     c50       1
    x[92]     c54       1
    x[92]     c72       1
    x[92]     c74       1
    x[92]     c92       1
    x[92]     c93       1
    x[92]     c97       1
    x[92]     OBJ       1
    x[93]     c22       1
    x[93]     c31       1
    x[93]     c47       1
    x[93]     c66       1
    x[93]     c92       1
    x[93]     c93       1
    x[93]     OBJ       1
    x[94]     c4        1
    x[94]     c7        1
    x[94]     c28       1
    x[94]     c43       1
    x[94]     c52       1
    x[94]     c57       1
    x[94]     c58       1
    x[94]     c80       1
    x[94]     c91       1
    x[94]     c94       1
    x[94]     OBJ       1
    x[95]     c6        1
    x[95]     c7        1
    x[95]     c9        1
    x[95]     c49       1
    x[95]     c57       1
    x[95]     c75       1
    x[95]     c85       1
    x[95]     c95       1
    x[95]     OBJ       1
    x[96]     c5        1
    x[96]     c18       1
    x[96]     c25       1
    x[96]     c32       1
    x[96]     c37       1
    x[96]     c49       1
    x[96]     c77       1
    x[96]     c80       1
    x[96]     c81       1
    x[96]     c96       1
    x[96]     c97       1
    x[96]     c99       1
    x[96]     OBJ       1
    x[97]     c3        1
    x[97]     c14       1
    x[97]     c20       1
    x[97]     c23       1
    x[97]     c26       1
    x[97]     c27       1
    x[97]     c28       1
    x[97]     c32       1
    x[97]     c54       1
    x[97]     c57       1
    x[97]     c92       1
    x[97]     c96       1
    x[97]     c97       1
    x[97]     OBJ       1
    x[98]     c1        1
    x[98]     c12       1
    x[98]     c19       1
    x[98]     c22       1
    x[98]     c32       1
    x[98]     c40       1
    x[98]     c43       1
    x[98]     c65       1
    x[98]     c88       1
    x[98]     c90       1
    x[98]     c98       1
    x[98]     c99       1
    x[98]     OBJ       1
    x[99]     c1        1
    x[99]     c5        1
    x[99]     c6        1
    x[99]     c19       1
    x[99]     c21       1
    x[99]     c52       1
    x[99]     c69       1
    x[99]     c72       1
    x[99]     c89       1
    x[99]     c96       1
    x[99]     c98       1
    x[99]     c99       1
    x[99]     OBJ       1
    x[100]    c2        1
    x[100]    c10       1
    x[100]    c14       1
    x[100]    c25       1
    x[100]    c32       1
    x[100]    c33       1
    x[100]    c36       1
    x[100]    c39       1
    x[100]    c42       1
    x[100]    c68       1
    x[100]    c78       1
    x[100]    c79       1
    x[100]    c85       1
    x[100]    c87       1
    x[100]    c100      1
    x[100]    OBJ       1
    MARKER    'MARKER'                 'INTEND'
RHS
    rhs       c1        1
    rhs       c2        1
    rhs       c3        1
    rhs       c4        1
    rhs       c5        1
    rhs       c6        1
    rhs       c7        1
    rhs       c8        1
    rhs       c9        1
    rhs       c10       1
    rhs       c11       1
    rhs       c12       1
    rhs       c13       1
    rhs       c14       1
    rhs       c15       1
    rhs       c16       1
    rhs       c17       1
    rhs       c18       1
    rhs       c19       1
    rhs       c20       1
    rhs       c21       1
    rhs       c22       1
    rhs       c23       1
    rhs       c24       1
    rhs       c25       1
    rhs       c26       1
    rhs       c27       1
    rhs       c28       1
    rhs       c29       1
    rhs       c30       1
    rhs       c31       1
    rhs       c32       1
    rhs       c33       1
    rhs       c34       1
    rhs       c35       1
    rhs       c36       1
    rhs       c37       1
    rhs       c38       1
    rhs       c39       1
    rhs       c40       1
    rhs       c41       1
    rhs       c42       1
    rhs       c43       1
    rhs       c44       1
    rhs       c45       1
    rhs       c46       1
    rhs       c47       1
    rhs       c48       1
    rhs       c49       1
    rhs       c50       1
    rhs       c51       1
    rhs       c52       1
    rhs       c53       1
    rhs       c54       1
    rhs       c55       1
    rhs       c56       1
    rhs       c57       1
    rhs       c58       1
    rhs       c59       1
    rhs       c60       1
    rhs       c61       1
    rhs       c62       1
    rhs       c63       1
    rhs       c64       1
    rhs       c65       1
    rhs       c66       1
    rhs       c67       1
    rhs       c68       1
    rhs       c69       1
    rhs       c70       1
    rhs       c71       1
    rhs       c72       1
    rhs       c73       1
    rhs       c74       1
    rhs       c75       1
    rhs       c76       1
    rhs       c77       1
    rhs       c78       1
    rhs       c79       1
    rhs       c80       1
    rhs       c81       1
    rhs       c82       1
    rhs       c83       1
    rhs       c84       1
    rhs       c85       1
    rhs       c86       1
    rhs       c87       1
    rhs       c88       1
    rhs       c89       1
    rhs       c90       1
    rhs       c91       1
    rhs       c92       1
    rhs       c93       1
    rhs       c94       1
    rhs       c95       1
    rhs       c96       1
    rhs       c97       1
    rhs       c98       1
    rhs       c99       1
    rhs       c100      1
RANGES
BOUNDS
 BV bounds    x[1]
 BV bounds    x[2]
 BV bounds    x[3]
 BV bounds    x[4]
 BV bounds    x[5]
 BV bounds    x[6]
 BV bounds    x[7]
 BV bounds    x[8]
 BV bounds    x[9]
 BV bounds    x[10]
 BV bounds    x[11]
 BV bounds    x[12]
 BV bounds    x[13]
 BV bounds    x[14]
 BV bounds    x[15]
 BV bounds    x[16]
 BV bounds    x[17]
 BV bounds    x[18]
 BV bounds    x[19]
 BV bounds    x[20]
 BV bounds    x[21]
 BV bounds    x[22]
 BV bounds    x[23]
 BV bounds    x[24]
 BV bounds    x[25]
 BV bounds    x[26]
 BV bounds    x[27]
 BV bounds    x[28]
 BV bounds    x[29]
 BV bounds    x[30]
 BV bounds    x[31]
 BV bounds    x[32]
 BV bounds    x[33]
 BV bounds    x[34]
 BV bounds    x[35]
 BV bounds    x[36]
 BV bounds    x[37]
 BV bounds    x[38]
 BV bounds    x[39]
 BV bounds    x[40]
 BV bounds    x[41]
 BV bounds    x[42]
 BV bounds    x[43]
 BV bounds    x[44]
 BV bounds    x[45]
 BV bounds    x[46]
 BV bounds    x[47]
 BV bounds    x[48]
 BV bounds    x[49]
 BV bounds    x[50]
 BV bounds    x[51]
 BV bounds    x[52]
 BV bounds    x[53]
 BV bounds    x[54]
 BV bounds    x[55]
 BV bounds    x[56]
 BV bounds    x[57]
 BV bounds    x[58]
 BV bounds    x[59]
 BV bounds    x[60]
 BV bounds    x[61]
 BV bounds    x[62]
 BV bounds    x[63]
 BV bounds    x[64]
 BV bounds    x[65]
 BV bounds    x[66]
 BV bounds    x[67]
 BV bounds    x[68]
 BV bounds    x[69]
 BV bounds    x[70]
 BV bounds    x[71]
 BV bounds    x[72]
 BV bounds    x[73]
 BV bounds    x[74]
 BV bounds    x[75]
 BV bounds    x[76]
 BV bounds    x[77]
 BV bounds    x[78]
 BV bounds    x[79]
 BV bounds    x[80]
 BV bounds    x[81]
 BV bounds    x[82]
 BV bounds    x[83]
 BV bounds    x[84]
 BV bounds    x[85]
 BV bounds    x[86]
 BV bounds    x[87]
 BV bounds    x[88]
 BV bounds    x[89]
 BV bounds    x[90]
 BV bounds    x[91]
 BV bounds    x[92]
 BV bounds    x[93]
 BV bounds    x[94]
 BV bounds    x[95]
 BV bounds    x[96]
 BV bounds    x[97]
 BV bounds    x[98]
 BV bounds    x[99]
 BV bounds    x[100]
ENDATA
